c 1 _r
c 2 _r_1
c 3 _r_1_5
c 4 _r_1_5_6_7
c 5 _r_1_5_6_7_9_10
c 6 _r_1_5_6_7_9_11
c 7 _r_1_5_6_7_9_12
c 8 _r_1_5_6_7_9_13
c 9 _r_1_5_6_8
c 10 _r_1_5_6_8_14_15
c 11 _r_1_5_6_8_14_16
c 12 _r_1_5_6_8_14_17
c 13 _r_1_5_6_8_14_18
c 14 _r_1_5_6_8_14_19
c 15 _r_1_20
c 16 _r_1_20_21
c 17 _r_1_20_21_25
c 18 _r_1_20_26
c 19 _r_1_20_26_27_28
c 20 _r_1_20_26_27_29
c 21 _r_1_20_26_27_29_30_31
c 22 _r_1_20_26_27_29_30_32
c 23 _r_1_20_26_27_29_30_33
c 24 _r_1_72
c 25 _r_1_72_73_74
c 26 _r_1_72_73_75
c 27 _r_1_96
c 28 _r_2
c 29 _r_2_34
c 30 _r_2_34_37_38
c 31 _r_2_34_37_38_39_40
c 32 _r_2_34_37_38_39_41
c 33 _r_2_34_37_38_39_42
c 34 _r_2_34_37_43
c 35 _r_2_34_37_43_46_47
c 36 _r_2_34_37_43_46_47_49_50
c 37 _r_2_34_37_43_46_47_49_51
c 38 _r_2_34_37_43_46_47_49_52
c 39 _r_2_34_37_43_46_47_49_53
c 40 _r_2_34_37_43_46_48
c 41 _r_2_34_37_43_46_48_54_55
c 42 _r_2_34_37_43_46_48_54_56
c 43 _r_2_34_37_43_46_48_54_57
c 44 _r_2_58
c 45 _r_2_58_59_60
c 46 _r_2_58_59_61
c 47 _r_2_62
c 48 _r_2_62_63_64
c 49 _r_2_62_63_65
c 50 _r_2_76
c 51 _r_2_78
c 52 _r_2_78_80
c 53 _r_2_78_81
c 54 _r_2_78_82
c 55 _r_2_78_82_83_84
c 56 _r_2_78_82_83_85
c 57 _r_2_86
c 58 _r_2_86_87
c 59 _r_2_86_88
c 60 _r_3
c 61 _r_4
c 62 _r_4_69
c 63 _r_4_69_70_71
c 64 _r_4_69_70_72
c 65 _r_4_89
c 66 _r_4_89_90
c 67 _r_4_89_91
c 68 _r_4_89_92
c 69 _r_51
c 70 _r_51_52
c 71 _r_51_53
c 72 _r_51_54
c 73 _r_51_54_55
c 74 _r_51_54_56
c 75 _r_51_54_57
c 76 _r_51_54_57_59
c 77 _r_51_54_57_60
c 78 _r_51_54_57_75
c 79 _r_51_54_58
c 80 _r_51_61
c 81 _r_51_62
c 82 _r_51_63
c 83 _r_51_63_64
c 84 _r_51_63_66
c 85 _r_51_63_66_67_68
c 86 _r_51_63_66_67_69
c 87 _r_51_70
c 88 _r_51_71
c 89 _r_51_72
c 90 _r_51_97
c 91 _r_51_98
c 92 _r_93
c 93 _r_93_94
c 94 _r_93_95
p cnf 94 191
1 0
-2 1 0
-1 2 0
-28 1 0
-1 28 0
-60 1 0
-1 60 0
-61 1 0
-1 61 0
-69 1 0
-1 69 0
-92 1 0
-1 92 0
-3 2 0
-2 3 0
-15 2 0
-2 15 0
-24 2 0
-2 24 0
-27 2 0
-29 28 0
-28 29 0
-44 28 0
-28 44 0
-47 28 0
-28 47 0
-50 28 0
-28 50 0
-51 28 0
-28 51 0
-57 28 0
-28 57 0
-62 61 0
-61 62 0
-65 61 0
-61 65 0
-70 69 0
-69 70 0
-71 69 0
-72 69 0
-69 72 0
-80 69 0
-81 69 0
-82 69 0
-87 69 0
-69 87 0
-88 69 0
-89 69 0
-90 69 0
-69 90 0
-91 69 0
-69 91 0
-93 92 0
-92 93 0
-94 92 0
-92 94 0
-4 3 0
-9 3 0
-3 4 9 0
-4 -9 0
-16 15 0
-15 16 0
-18 15 0
-15 18 0
-25 24 0
-26 24 0
-24 25 26 0
-25 -26 0
-30 29 0
-34 29 0
-29 30 34 0
-30 -34 0
-45 44 0
-46 44 0
-44 45 46 0
-45 -46 0
-48 47 0
-49 47 0
-47 48 49 0
-48 -49 0
-52 51 0
-51 52 0
-53 51 0
-54 51 0
-58 57 0
-57 58 0
-59 57 0
-57 59 0
-63 62 0
-64 62 0
-62 63 64 0
-63 -64 0
-66 65 0
-65 66 0
-67 65 0
-65 67 0
-68 65 0
-65 68 0
-73 72 0
-72 73 0
-74 72 0
-72 74 0
-75 72 0
-79 72 0
-72 79 0
-83 82 0
-84 82 0
-5 4 0
-6 4 0
-7 4 0
-8 4 0
-4 5 6 7 8 0
-5 -6 0
-5 -7 0
-5 -8 0
-6 -7 0
-6 -8 0
-7 -8 0
-10 9 0
-11 9 0
-12 9 0
-13 9 0
-14 9 0
-9 10 11 12 13 14 0
-10 -11 0
-10 -12 0
-10 -13 0
-10 -14 0
-11 -12 0
-11 -13 0
-11 -14 0
-12 -13 0
-12 -14 0
-13 -14 0
-17 16 0
-16 17 0
-19 18 0
-20 18 0
-18 19 20 0
-19 -20 0
-31 30 0
-32 30 0
-33 30 0
-30 31 32 33 0
-31 -32 0
-31 -33 0
-32 -33 0
-35 34 0
-40 34 0
-34 35 40 0
-35 -40 0
-55 54 0
-56 54 0
-54 55 56 0
-76 75 0
-75 76 0
-77 75 0
-75 77 0
-78 75 0
-75 78 0
-85 84 0
-86 84 0
-84 85 86 0
-85 -86 0
-21 20 0
-22 20 0
-23 20 0
-20 21 22 23 0
-21 -22 0
-21 -23 0
-22 -23 0
-36 35 0
-37 35 0
-38 35 0
-39 35 0
-35 36 37 38 39 0
-36 -37 0
-36 -38 0
-36 -39 0
-37 -38 0
-37 -39 0
-38 -39 0
-41 40 0
-42 40 0
-43 40 0
-40 41 42 43 0
-41 -42 0
-41 -43 0
-42 -43 0
-45 48 0
71 -80 0
